presolving:
   (0.3s) running MILP presolver
   (0.4s) MILP presolver (2 rounds): 0 aggregations, 0 fixings, 0 bound changes
(round 1, exhaustive) 0 del vars, 605 del conss, 0 add conss, 0 chg bounds, 0 chg sides, 0 chg coeffs, 0 upgd conss, 0 impls, 2325 clqs
(round 2, exhaustive) 0 del vars, 605 del conss, 0 add conss, 0 chg bounds, 0 chg sides, 0 chg coeffs, 2245 upgd conss, 0 impls, 2325 clqs
(round 3, exhaustive) 0 del vars, 605 del conss, 0 add conss, 0 chg bounds, 0 chg sides, 47 chg coeffs, 2245 upgd conss, 0 impls, 2325 clqs
   (0.7s) probing: 51/1600 (3.2%) - 0 fixings, 0 aggregations, 0 implications, 0 bound changes
   (0.7s) probing aborted: 50/50 successive totally useless probings
   (0.7s) symmetry computation started: requiring (bin +, int -, cont +), (fixed: bin -, int +, cont -)
   (0.7s) no symmetry present
presolving (4 rounds: 4 fast, 4 medium, 4 exhaustive):
 0 deleted vars, 605 deleted constraints, 0 added constraints, 0 tightened bounds, 0 added holes, 0 changed sides, 47 changed coefficients
 0 implications, 2394 cliques
presolved problem has 1600 variables (1600 bin, 0 int, 0 impl, 0 cont) and 2245 constraints
     40 constraints of type <knapsack>
   2205 constraints of type <setppc>
transformed objective value is always integral (scale: 1)
Presolving Time: 0.64

 time | node  | left  |LP iter|LP it/n|mem/heur|mdpt |vars |cons |rows |cuts |sepa|confs|strbr|  dualbound   | primalbound  |  gap   | compl. 
p 1.0s|     1 |     0 |     0 |     - |  clique|   0 |1600 |2245 |2245 |   0 |  0 |   0 |   0 | 0.000000e+00 | 1.582000e+03 |    Inf | unknown
  2.2s|     1 |     0 |  1050 |     - |    23M |   0 |1600 |2308 |2245 |   0 |  0 |  63 |   0 | 6.106906e+02 | 1.582000e+03 | 159.05%| unknown
r 2.2s|     1 |     0 |  1050 |     - |rounding|   0 |1600 |2308 |2245 |   0 |  0 |  63 |   0 | 6.106906e+02 | 8.740000e+02 |  43.12%| unknown
  2.5s|     1 |     0 |  1154 |     - |    24M |   0 |1600 |2308 |2250 |   5 |  1 |  63 |   0 | 6.135130e+02 | 8.740000e+02 |  42.46%| unknown
  3.3s|     1 |     0 |  1216 |     - |    24M |   0 |1600 |2308 |2255 |  10 |  2 |  63 |   0 | 6.145197e+02 | 8.740000e+02 |  42.22%| unknown
r 3.4s|     1 |     0 |  1216 |     - |rounding|   0 |1600 |2308 |2255 |  10 |  2 |  63 |   0 | 6.145197e+02 | 7.950000e+02 |  29.37%| unknown
  3.7s|     1 |     0 |  1259 |     - |    24M |   0 |1600 |2308 |2261 |  16 |  3 |  63 |   0 | 6.151580e+02 | 7.950000e+02 |  29.24%| unknown
  4.6s|     1 |     0 |  1298 |     - |    25M |   0 |1600 |2308 |2265 |  20 |  4 |  63 |   0 | 6.154579e+02 | 7.950000e+02 |  29.17%| unknown
  5.1s|     1 |     0 |  1316 |     - |    25M |   0 |1600 |2308 |2268 |  23 |  5 |  63 |   0 | 6.155889e+02 | 7.950000e+02 |  29.14%| unknown
  5.8s|     1 |     0 |  1328 |     - |    25M |   0 |1600 |2308 |2270 |  25 |  6 |  63 |   0 | 6.156307e+02 | 7.950000e+02 |  29.14%| unknown
  6.4s|     1 |     0 |  1382 |     - |    26M |   0 |1600 |2308 |2272 |  27 |  7 |  63 |   0 | 6.162300e+02 | 7.950000e+02 |  29.01%| unknown
  6.7s|     1 |     0 |  1433 |     - |    26M |   0 |1600 |2308 |2277 |  32 |  8 |  63 |   0 | 6.167468e+02 | 7.950000e+02 |  28.90%| unknown
  6.9s|     1 |     0 |  1526 |     - |    26M |   0 |1600 |2308 |2286 |  41 |  9 |  63 |   0 | 6.177573e+02 | 7.950000e+02 |  28.69%| unknown
  7.3s|     1 |     0 |  1546 |     - |    26M |   0 |1600 |2308 |2289 |  44 | 10 |  63 |   0 | 6.178992e+02 | 7.950000e+02 |  28.66%| unknown
  7.5s|     1 |     0 |  1574 |     - |    27M |   0 |1600 |2308 |2291 |  46 | 11 |  63 |   0 | 6.181745e+02 | 7.950000e+02 |  28.60%| unknown
 time | node  | left  |LP iter|LP it/n|mem/heur|mdpt |vars |cons |rows |cuts |sepa|confs|strbr|  dualbound   | primalbound  |  gap   | compl. 
  8.1s|     1 |     0 |  1627 |     - |    27M |   0 |1600 |2308 |2295 |  50 | 12 |  63 |   0 | 6.184091e+02 | 7.950000e+02 |  28.56%| unknown
  8.2s|     1 |     0 |  1669 |     - |    27M |   0 |1600 |2308 |2299 |  54 | 13 |  63 |   0 | 6.185479e+02 | 7.950000e+02 |  28.53%| unknown
  8.3s|     1 |     0 |  1684 |     - |    27M |   0 |1600 |2308 |2301 |  56 | 14 |  63 |   0 | 6.185583e+02 | 7.950000e+02 |  28.52%| unknown
  8.6s|     1 |     0 |  1688 |     - |    28M |   0 |1600 |2308 |2303 |  58 | 15 |  63 |   0 | 6.185616e+02 | 7.950000e+02 |  28.52%| unknown
  8.6s|     1 |     0 |  1718 |     - |    28M |   0 |1600 |2308 |2306 |  62 | 16 |  63 |   0 | 6.186933e+02 | 7.950000e+02 |  28.50%| unknown
  8.9s|     1 |     0 |  1732 |     - |    28M |   0 |1600 |2308 |2309 |  65 | 17 |  63 |   0 | 6.187326e+02 | 7.950000e+02 |  28.49%| unknown
  9.0s|     1 |     0 |  1733 |     - |    29M |   0 |1600 |2308 |2310 |  66 | 19 |  63 |   0 | 6.187333e+02 | 7.950000e+02 |  28.49%| unknown
  9.4s|     1 |     0 |  1779 |     - |    29M |   0 |1600 |2308 |2312 |  68 | 20 |  63 |   0 | 6.188427e+02 | 7.950000e+02 |  28.47%| unknown
  9.5s|     1 |     0 |  1796 |     - |    29M |   0 |1600 |2308 |2315 |  71 | 21 |  63 |   0 | 6.188524e+02 | 7.950000e+02 |  28.46%| unknown
  9.7s|     1 |     0 |  1807 |     - |    29M |   0 |1600 |2308 |2316 |  72 | 22 |  63 |   0 | 6.188537e+02 | 7.950000e+02 |  28.46%| unknown
L17.8s|     1 |     0 |  6015 |     - |    rens|   0 |1600 |2329 |2316 |  72 | 24 |  95 |   0 | 6.188537e+02 | 6.270000e+02 |   1.32%| unknown
 18.1s|     1 |     0 |  6015 |     - |    30M |   0 |1600 |2329 |2316 |  72 | 24 |  95 |   0 | 6.188537e+02 | 6.270000e+02 |   1.32%| unknown
 18.5s|     1 |     0 |  6015 |     - |    30M |   0 |1600 |2329 | 629 |  72 | 24 |  95 |   0 | 6.188537e+02 | 6.270000e+02 |   1.32%| unknown
 18.7s|     1 |     0 |  6015 |     - |    30M |   0 |1600 | 622 | 606 |  72 | 25 |  95 |   0 | 6.188537e+02 | 6.270000e+02 |   1.32%| unknown
(run 1, node 1) restarting after 1214 global fixings of integer variables

(restart) converted 45 cuts from the global cut pool into linear constraints

presolving:
(round 1, fast)       1215 del vars, 38 del conss, 0 add conss, 0 chg bounds, 0 chg sides, 1152 chg coeffs, 0 upgd conss, 0 impls, 462 clqs
(round 2, fast)       1215 del vars, 38 del conss, 0 add conss, 0 chg bounds, 1 chg sides, 1164 chg coeffs, 0 upgd conss, 0 impls, 462 clqs
   (18.7s) running MILP presolver
   (18.7s) MILP presolver found nothing
(round 3, medium)     1215 del vars, 43 del conss, 5 add conss, 0 chg bounds, 2 chg sides, 1174 chg coeffs, 0 upgd conss, 0 impls, 466 clqs
(round 4, exhaustive) 1215 del vars, 52 del conss, 5 add conss, 0 chg bounds, 2 chg sides, 1174 chg coeffs, 0 upgd conss, 0 impls, 466 clqs
(round 5, exhaustive) 1215 del vars, 52 del conss, 5 add conss, 0 chg bounds, 2 chg sides, 1174 chg coeffs, 45 upgd conss, 0 impls, 466 clqs
(round 6, fast)       1215 del vars, 52 del conss, 5 add conss, 0 chg bounds, 2 chg sides, 1185 chg coeffs, 45 upgd conss, 0 impls, 466 clqs
(round 7, medium)     1215 del vars, 52 del conss, 5 add conss, 0 chg bounds, 7 chg sides, 1195 chg coeffs, 45 upgd conss, 0 impls, 466 clqs
(round 8, fast)       1215 del vars, 52 del conss, 5 add conss, 0 chg bounds, 9 chg sides, 1203 chg coeffs, 45 upgd conss, 0 impls, 466 clqs
(round 9, exhaustive) 1215 del vars, 53 del conss, 5 add conss, 0 chg bounds, 9 chg sides, 1217 chg coeffs, 45 upgd conss, 0 impls, 466 clqs
(round 10, fast)       1215 del vars, 53 del conss, 5 add conss, 0 chg bounds, 10 chg sides, 1230 chg coeffs, 45 upgd conss, 0 impls, 466 clqs
(round 11, exhaustive) 1215 del vars, 66 del conss, 5 add conss, 0 chg bounds, 10 chg sides, 1230 chg coeffs, 45 upgd conss, 0 impls, 466 clqs
presolving (12 rounds: 12 fast, 7 medium, 5 exhaustive):
 1215 deleted vars, 66 deleted constraints, 5 added constraints, 0 tightened bounds, 0 added holes, 10 changed sides, 1230 changed coefficients
 0 implications, 466 cliques
presolved problem has 385 variables (385 bin, 0 int, 0 impl, 0 cont) and 500 constraints
     71 constraints of type <knapsack>
    415 constraints of type <setppc>
      1 constraints of type <linear>
     13 constraints of type <logicor>
transformed objective value is always integral (scale: 1)
Presolving Time: 0.79
transformed 3/4 original solutions to the transformed problem space

 time | node  | left  |LP iter|LP it/n|mem/heur|mdpt |vars |cons |rows |cuts |sepa|confs|strbr|  dualbound   | primalbound  |  gap   | compl. 
 19.4s|     1 |     0 |  6762 |     - |    30M |   0 | 385 | 500 | 486 |   0 |  0 |  95 |   0 | 6.188537e+02 | 6.270000e+02 |   1.32%| unknown
 19.4s|     1 |     0 |  6762 |     - |    30M |   0 | 385 | 500 | 460 |   0 |  0 |  95 |   0 | 6.188537e+02 | 6.270000e+02 |   1.32%| unknown
 19.8s|     1 |     0 |  6813 |     - |    33M |   0 | 385 | 474 | 458 |   5 |  1 |  95 |   0 | 6.188537e+02 | 6.270000e+02 |   1.32%| unknown
 19.8s|     1 |     0 |  6813 |     - |    33M |   0 | 385 | 474 | 457 |   5 |  1 |  95 |   0 | 6.188537e+02 | 6.270000e+02 |   1.32%| unknown
 20.8s|     1 |     0 |  6887 |     - |    33M |   0 | 385 | 467 | 459 |   7 |  2 |  95 |   0 | 6.190201e+02 | 6.270000e+02 |   1.29%| unknown
 20.8s|     1 |     0 |  6887 |     - |    33M |   0 | 385 | 467 | 454 |   7 |  2 |  95 |   0 | 6.190201e+02 | 6.270000e+02 |   1.29%| unknown
 22.4s|     1 |     0 |  6928 |     - |    36M |   0 | 385 | 462 | 460 |  13 |  3 |  95 |   0 | 6.193394e+02 | 6.270000e+02 |   1.24%| unknown
 22.5s|     1 |     0 |  6928 |     - |    36M |   0 | 385 | 462 | 459 |  13 |  3 |  95 |   0 | 6.193394e+02 | 6.270000e+02 |   1.24%| unknown
 23.7s|     1 |     0 |  6957 |     - |    38M |   0 | 385 | 461 | 461 |  15 |  4 |  95 |   0 | 6.194863e+02 | 6.270000e+02 |   1.21%| unknown
 23.8s|     1 |     0 |  6957 |     - |    38M |   0 | 385 | 461 | 459 |  15 |  4 |  95 |   0 | 6.194863e+02 | 6.270000e+02 |   1.21%| unknown
 25.0s|     1 |     0 |  6977 |     - |    39M |   0 | 385 | 459 | 460 |  16 |  5 |  95 |   0 | 6.195532e+02 | 6.270000e+02 |   1.20%| unknown
 25.4s|     1 |     0 |  6998 |     - |    41M |   0 | 385 | 459 | 464 |  20 |  6 |  95 |   0 | 6.195963e+02 | 6.270000e+02 |   1.19%| unknown
 25.6s|     1 |     0 |  7027 |     - |    41M |   0 | 385 | 459 | 466 |  22 |  7 |  95 |   0 | 6.196756e+02 | 6.270000e+02 |   1.18%| unknown
 26.2s|     1 |     0 |  7057 |     - |    43M |   0 | 385 | 459 | 468 |  24 |  8 |  95 |   0 | 6.197280e+02 | 6.270000e+02 |   1.17%| unknown
 26.2s|     1 |     0 |  7057 |     - |    43M |   0 | 385 | 459 | 467 |  24 |  8 |  95 |   0 | 6.197280e+02 | 6.270000e+02 |   1.17%| unknown
 time | node  | left  |LP iter|LP it/n|mem/heur|mdpt |vars |cons |rows |cuts |sepa|confs|strbr|  dualbound   | primalbound  |  gap   | compl. 
 27.2s|     1 |     0 |  7086 |     - |    45M |   0 | 385 | 458 | 468 |  25 |  9 |  95 |   0 | 6.197980e+02 | 6.270000e+02 |   1.16%| unknown
 27.2s|     1 |     0 |  7086 |     - |    45M |   0 | 385 | 458 | 465 |  25 |  9 |  95 |   0 | 6.197980e+02 | 6.270000e+02 |   1.16%| unknown
 28.1s|     1 |     0 |  7147 |     - |    47M |   0 | 385 | 455 | 466 |  26 | 10 |  95 |   0 | 6.199919e+02 | 6.270000e+02 |   1.13%| unknown
 28.1s|     1 |     0 |  7147 |     - |    47M |   0 | 385 | 455 | 462 |  26 | 10 |  95 |   0 | 6.199919e+02 | 6.270000e+02 |   1.13%| unknown
 28.4s|     1 |     0 |  7164 |     - |    47M |   0 | 385 | 451 | 463 |  29 | 11 |  95 |   0 | 6.200005e+02 | 6.270000e+02 |   1.13%| unknown
 28.4s|     1 |     0 |  7174 |     - |    47M |   0 | 385 | 449 | 465 |  31 | 12 |  95 |   0 | 6.200190e+02 | 6.270000e+02 |   1.13%| unknown
 28.9s|     1 |     0 |  7203 |     - |    47M |   0 | 385 | 449 | 452 |  35 | 13 |  95 |   0 | 6.200283e+02 | 6.270000e+02 |   1.12%| unknown
 29.0s|     1 |     0 |  7232 |     - |    47M |   0 | 385 | 449 | 457 |  40 | 14 |  95 |   0 | 6.200707e+02 | 6.270000e+02 |   1.12%| unknown
 29.0s|     1 |     0 |  7232 |     - |    47M |   0 | 385 | 449 | 455 |  40 | 14 |  95 |   0 | 6.200707e+02 | 6.270000e+02 |   1.12%| unknown
 29.1s|     1 |     0 |  7266 |     - |    47M |   0 | 385 | 447 | 462 |  47 | 15 |  95 |   0 | 6.201175e+02 | 6.270000e+02 |   1.11%| unknown
 29.1s|     1 |     0 |  7266 |     - |    47M |   0 | 385 | 447 | 461 |  47 | 15 |  95 |   0 | 6.201175e+02 | 6.270000e+02 |   1.11%| unknown
 29.5s|     1 |     0 |  7285 |     - |    47M |   0 | 385 | 446 | 465 |  51 | 16 |  95 |   0 | 6.201332e+02 | 6.270000e+02 |   1.11%| unknown
 29.9s|     1 |     0 |  7290 |     - |    47M |   0 | 385 | 446 | 466 |  52 | 17 |  95 |   0 | 6.201352e+02 | 6.270000e+02 |   1.11%| unknown
 30.2s|     1 |     0 |  7312 |     - |    47M |   0 | 385 | 446 | 467 |  53 | 18 |  95 |   0 | 6.201481e+02 | 6.270000e+02 |   1.10%| unknown
 30.5s|     1 |     0 |  7323 |     - |    47M |   0 | 385 | 446 | 458 |  54 | 19 |  95 |   0 | 6.201531e+02 | 6.270000e+02 |   1.10%| unknown
 time | node  | left  |LP iter|LP it/n|mem/heur|mdpt |vars |cons |rows |cuts |sepa|confs|strbr|  dualbound   | primalbound  |  gap   | compl. 
 30.7s|     1 |     0 |  7335 |     - |    47M |   0 | 385 | 446 | 461 |  57 | 20 |  95 |   0 | 6.201626e+02 | 6.270000e+02 |   1.10%| unknown
(run 2, node 1) restarting after 76 global fixings of integer variables

(restart) converted 40 cuts from the global cut pool into linear constraints

presolving:
(round 1, fast)       76 del vars, 0 del conss, 0 add conss, 0 chg bounds, 1 chg sides, 70 chg coeffs, 0 upgd conss, 0 impls, 367 clqs
   (32.5s) running MILP presolver
   (32.5s) MILP presolver found nothing
(round 2, exhaustive) 76 del vars, 1 del conss, 0 add conss, 0 chg bounds, 1 chg sides, 70 chg coeffs, 0 upgd conss, 0 impls, 368 clqs
(round 3, exhaustive) 76 del vars, 1 del conss, 0 add conss, 0 chg bounds, 1 chg sides, 70 chg coeffs, 30 upgd conss, 0 impls, 368 clqs
(round 4, fast)       76 del vars, 1 del conss, 0 add conss, 0 chg bounds, 1 chg sides, 73 chg coeffs, 30 upgd conss, 0 impls, 368 clqs
(round 5, medium)     76 del vars, 1 del conss, 0 add conss, 0 chg bounds, 5 chg sides, 81 chg coeffs, 30 upgd conss, 0 impls, 368 clqs
(round 6, exhaustive) 76 del vars, 1 del conss, 0 add conss, 0 chg bounds, 5 chg sides, 90 chg coeffs, 30 upgd conss, 0 impls, 368 clqs
(round 7, exhaustive) 76 del vars, 7 del conss, 0 add conss, 0 chg bounds, 5 chg sides, 95 chg coeffs, 30 upgd conss, 0 impls, 368 clqs
presolving (8 rounds: 8 fast, 6 medium, 5 exhaustive):
 76 deleted vars, 7 deleted constraints, 0 added constraints, 0 tightened bounds, 0 added holes, 5 changed sides, 95 changed coefficients
 0 implications, 368 cliques
presolved problem has 309 variables (309 bin, 0 int, 0 impl, 0 cont) and 473 constraints
     97 constraints of type <knapsack>
    341 constraints of type <setppc>
     10 constraints of type <linear>
     25 constraints of type <logicor>
transformed objective value is always integral (scale: 1)
Presolving Time: 0.96
transformed 4/5 original solutions to the transformed problem space

 time | node  | left  |LP iter|LP it/n|mem/heur|mdpt |vars |cons |rows |cuts |sepa|confs|strbr|  dualbound   | primalbound  |  gap   | compl. 
 33.1s|     1 |     0 |  8910 |     - |    43M |   0 | 309 | 473 | 447 |   0 |  0 | 113 |   0 | 6.201626e+02 | 6.270000e+02 |   1.10%| unknown
 33.1s|     1 |     0 |  8910 |     - |    43M |   0 | 309 | 473 | 404 |   0 |  0 | 113 |   0 | 6.201626e+02 | 6.270000e+02 |   1.10%| unknown
 33.7s|     1 |     0 |  8994 |     - |    44M |   0 | 309 | 430 | 403 |   5 |  1 | 113 |   0 | 6.201626e+02 | 6.270000e+02 |   1.10%| unknown
 33.7s|     1 |     0 |  8994 |     - |    44M |   0 | 309 | 430 | 401 |   5 |  1 | 113 |   0 | 6.201626e+02 | 6.270000e+02 |   1.10%| unknown
 34.9s|     1 |     0 |  9038 |     - |    46M |   0 | 309 | 422 | 403 |   7 |  2 | 113 |   0 | 6.201809e+02 | 6.270000e+02 |   1.10%| unknown
 35.6s|     1 |     0 |  9083 |     - |    46M |   0 | 309 | 422 | 404 |   8 |  3 | 113 |   0 | 6.202189e+02 | 6.270000e+02 |   1.09%| unknown
 37.2s|     1 |     0 |  9121 |     - |    48M |   0 | 309 | 422 | 405 |   9 |  4 | 113 |   0 | 6.202421e+02 | 6.270000e+02 |   1.09%| unknown
 38.7s|     1 |     0 |  9164 |     - |    49M |   0 | 309 | 422 | 406 |  10 |  5 | 113 |   0 | 6.202539e+02 | 6.270000e+02 |   1.09%| unknown
 40.0s|     1 |     0 |  9212 |     - |    49M |   0 | 309 | 422 | 407 |  11 |  6 | 113 |   0 | 6.202732e+02 | 6.270000e+02 |   1.08%| unknown
 41.3s|     1 |     0 |  9238 |     - |    51M |   0 | 309 | 422 | 408 |  12 |  7 | 113 |   0 | 6.202789e+02 | 6.270000e+02 |   1.08%| unknown
 42.8s|     1 |     0 |  9269 |     - |    51M |   0 | 309 | 422 | 410 |  14 |  8 | 113 |   0 | 6.202861e+02 | 6.270000e+02 |   1.08%| unknown
 44.3s|     1 |     0 |  9329 |     - |    52M |   0 | 309 | 422 | 412 |  16 |  9 | 113 |   0 | 6.202977e+02 | 6.270000e+02 |   1.08%| unknown
 45.9s|     1 |     0 |  9398 |     - |    52M |   0 | 309 | 422 | 413 |  17 | 10 | 113 |   0 | 6.203146e+02 | 6.270000e+02 |   1.08%| unknown
 46.5s|     1 |     0 |  9403 |     - |    52M |   0 | 309 | 422 | 391 |  19 | 11 | 113 |   0 | 6.203154e+02 | 6.270000e+02 |   1.08%| unknown
 47.4s|     1 |     0 |  9415 |     - |    52M |   0 | 309 | 422 | 392 |  20 | 12 | 113 |   0 | 6.203168e+02 | 6.270000e+02 |   1.08%| unknown
(run 3, node 1) restarting after 59 global fixings of integer variables

(restart) converted 15 cuts from the global cut pool into linear constraints

presolving:
(round 1, fast)       59 del vars, 0 del conss, 0 add conss, 0 chg bounds, 1 chg sides, 53 chg coeffs, 0 upgd conss, 0 impls, 289 clqs
   (50.9s) running MILP presolver
   (51.0s) MILP presolver found nothing
(round 2, medium)     59 del vars, 1 del conss, 3 add conss, 0 chg bounds, 4 chg sides, 66 chg coeffs, 0 upgd conss, 0 impls, 289 clqs
(round 3, exhaustive) 59 del vars, 7 del conss, 3 add conss, 0 chg bounds, 4 chg sides, 66 chg coeffs, 0 upgd conss, 0 impls, 289 clqs
(round 4, exhaustive) 59 del vars, 7 del conss, 3 add conss, 0 chg bounds, 4 chg sides, 66 chg coeffs, 4 upgd conss, 0 impls, 289 clqs
(round 5, exhaustive) 59 del vars, 8 del conss, 3 add conss, 0 chg bounds, 4 chg sides, 69 chg coeffs, 4 upgd conss, 0 impls, 289 clqs
presolving (6 rounds: 6 fast, 5 medium, 4 exhaustive):
 59 deleted vars, 8 deleted constraints, 3 added constraints, 0 tightened bounds, 0 added holes, 4 changed sides, 69 changed coefficients
 0 implications, 289 cliques
presolved problem has 250 variables (250 bin, 0 int, 0 impl, 0 cont) and 425 constraints
     96 constraints of type <knapsack>
    277 constraints of type <setppc>
     21 constraints of type <linear>
     31 constraints of type <logicor>
transformed objective value is always integral (scale: 1)
Presolving Time: 1.18
transformed 5/6 original solutions to the transformed problem space

 time | node  | left  |LP iter|LP it/n|mem/heur|mdpt |vars |cons |rows |cuts |sepa|confs|strbr|  dualbound   | primalbound  |  gap   | compl. 
 52.0s|     1 |     0 | 10544 |     - |    47M |   0 | 250 | 425 | 393 |   0 |  0 | 120 |   0 | 6.203168e+02 | 6.270000e+02 |   1.08%| unknown
 52.0s|     1 |     0 | 10544 |     - |    47M |   0 | 250 | 425 | 388 |   0 |  0 | 120 |   0 | 6.203168e+02 | 6.270000e+02 |   1.08%| unknown
 53.0s|     1 |     0 | 10652 |     - |    47M |   0 | 250 | 420 | 392 |   5 |  1 | 120 |   0 | 6.203168e+02 | 6.270000e+02 |   1.08%| unknown
 54.4s|     1 |     0 | 10710 |     - |    47M |   0 | 250 | 419 | 394 |   7 |  2 | 120 |   0 | 6.203564e+02 | 6.270000e+02 |   1.07%| unknown
 55.6s|     1 |     0 | 10765 |     - |    47M |   0 | 250 | 419 | 395 |   8 |  3 | 120 |   0 | 6.203870e+02 | 6.270000e+02 |   1.07%| unknown
 56.8s|     1 |     0 | 10821 |     - |    49M |   0 | 250 | 419 | 396 |   9 |  4 | 120 |   0 | 6.204064e+02 | 6.270000e+02 |   1.06%| unknown
 57.8s|     1 |     0 | 10868 |     - |    50M |   0 | 250 | 419 | 397 |  10 |  5 | 120 |   0 | 6.204349e+02 | 6.270000e+02 |   1.06%| unknown
 59.5s|     1 |     0 | 10903 |     - |    50M |   0 | 250 | 419 | 398 |  11 |  6 | 120 |   0 | 6.204379e+02 | 6.270000e+02 |   1.06%| unknown
 60.5s|     1 |     0 | 10961 |     - |    52M |   0 | 250 | 419 | 399 |  12 |  7 | 120 |   0 | 6.204501e+02 | 6.270000e+02 |   1.06%| unknown
 61.3s|     1 |     0 | 10999 |     - |    52M |   0 | 250 | 419 | 400 |  13 |  8 | 120 |   0 | 6.204573e+02 | 6.270000e+02 |   1.05%| unknown
 63.0s|     1 |     0 | 11040 |     - |    53M |   0 | 250 | 419 | 401 |  14 |  9 | 120 |   0 | 6.204610e+02 | 6.270000e+02 |   1.05%| unknown
 64.8s|     1 |     0 | 11101 |     - |    56M |   0 | 250 | 419 | 402 |  15 | 10 | 120 |   0 | 6.204720e+02 | 6.270000e+02 |   1.05%| unknown
 65.7s|     1 |     0 | 11119 |     - |    56M |   0 | 250 | 419 | 403 |  16 | 11 | 120 |   0 | 6.204744e+02 | 6.270000e+02 |   1.05%| unknown
 66.2s|     1 |     0 | 11146 |     - |    56M |   0 | 250 | 419 | 411 |  24 | 12 | 120 |   0 | 6.204805e+02 | 6.270000e+02 |   1.05%| unknown
 73.3s|     1 |     2 | 11325 |     - |    56M |   0 | 250 | 411 | 411 |  24 | 12 | 120 |  25 | 6.210284e+02 | 6.270000e+02 |   0.96%| unknown
(run 4, node 1) restarting after 18 global fixings of integer variables

(restart) converted 19 cuts from the global cut pool into linear constraints

presolving:
(round 1, fast)       20 del vars, 2 del conss, 0 add conss, 0 chg bounds, 0 chg sides, 18 chg coeffs, 0 upgd conss, 0 impls, 262 clqs
(round 2, medium)     20 del vars, 2 del conss, 0 add conss, 0 chg bounds, 2 chg sides, 22 chg coeffs, 0 upgd conss, 0 impls, 262 clqs
(round 3, exhaustive) 20 del vars, 2 del conss, 0 add conss, 0 chg bounds, 2 chg sides, 22 chg coeffs, 9 upgd conss, 0 impls, 262 clqs
(round 4, fast)       20 del vars, 2 del conss, 0 add conss, 0 chg bounds, 2 chg sides, 23 chg coeffs, 9 upgd conss, 0 impls, 262 clqs
(round 5, medium)     20 del vars, 2 del conss, 0 add conss, 0 chg bounds, 3 chg sides, 25 chg coeffs, 9 upgd conss, 0 impls, 262 clqs
(round 6, exhaustive) 20 del vars, 2 del conss, 0 add conss, 0 chg bounds, 3 chg sides, 26 chg coeffs, 9 upgd conss, 0 impls, 262 clqs
(round 7, exhaustive) 20 del vars, 2 del conss, 0 add conss, 0 chg bounds, 3 chg sides, 34 chg coeffs, 9 upgd conss, 0 impls, 262 clqs
presolving (8 rounds: 8 fast, 6 medium, 4 exhaustive):
 20 deleted vars, 2 deleted constraints, 0 added constraints, 0 tightened bounds, 0 added holes, 3 changed sides, 34 changed coefficients
 0 implications, 262 cliques
presolved problem has 230 variables (230 bin, 0 int, 0 impl, 0 cont) and 428 constraints
    104 constraints of type <knapsack>
    262 constraints of type <setppc>
     31 constraints of type <linear>
     31 constraints of type <logicor>
transformed objective value is always integral (scale: 1)
Presolving Time: 1.36
transformed 6/7 original solutions to the transformed problem space

 time | node  | left  |LP iter|LP it/n|mem/heur|mdpt |vars |cons |rows |cuts |sepa|confs|strbr|  dualbound   | primalbound  |  gap   | compl. 
 73.9s|     1 |     0 | 12015 |     - |    56M |   0 | 230 | 428 | 396 |   0 |  0 | 120 |  25 | 6.210284e+02 | 6.270000e+02 |   0.96%| unknown
 75.0s|     1 |     0 | 12151 |     - |    56M |   0 | 230 | 428 | 399 |   3 |  1 | 120 |  25 | 6.210284e+02 | 6.270000e+02 |   0.96%| unknown
 76.4s|     1 |     0 | 12209 |     - |    56M |   0 | 230 | 428 | 405 |   9 |  2 | 120 |  25 | 6.210284e+02 | 6.270000e+02 |   0.96%| unknown
 77.2s|     1 |     0 | 12235 |     - |    56M |   0 | 230 | 428 | 406 |  10 |  3 | 120 |  25 | 6.210284e+02 | 6.270000e+02 |   0.96%| unknown
 78.9s|     1 |     0 | 12297 |     - |    56M |   0 | 230 | 428 | 407 |  11 |  4 | 120 |  25 | 6.210284e+02 | 6.270000e+02 |   0.96%| unknown
 80.3s|     1 |     0 | 12353 |     - |    56M |   0 | 230 | 428 | 409 |  13 |  5 | 120 |  25 | 6.210284e+02 | 6.270000e+02 |   0.96%| unknown
 82.6s|     1 |     0 | 12401 |     - |    56M |   0 | 230 | 428 | 410 |  14 |  6 | 120 |  25 | 6.210284e+02 | 6.270000e+02 |   0.96%| unknown
 84.2s|     1 |     0 | 12448 |     - |    56M |   0 | 230 | 428 | 411 |  15 |  7 | 120 |  25 | 6.210284e+02 | 6.270000e+02 |   0.96%| unknown
 85.5s|     1 |     0 | 12472 |     - |    56M |   0 | 230 | 428 | 412 |  16 |  8 | 120 |  25 | 6.210284e+02 | 6.270000e+02 |   0.96%| unknown
 86.5s|     1 |     0 | 12499 |     - |    56M |   0 | 230 | 428 | 413 |  17 |  9 | 120 |  25 | 6.210284e+02 | 6.270000e+02 |   0.96%| unknown
 87.7s|     1 |     0 | 12535 |     - |    57M |   0 | 230 | 428 | 370 |  18 | 10 | 120 |  25 | 6.210284e+02 | 6.270000e+02 |   0.96%| unknown
 88.2s|     1 |     0 | 12541 |     - |    57M |   0 | 230 | 429 | 373 |  21 | 11 | 121 |  25 | 6.210284e+02 | 6.270000e+02 |   0.96%| unknown
 92.5s|     1 |     0 | 13013 |     - |    57M |   0 | 230 | 417 | 373 |  21 | 11 | 125 |  42 | 6.210284e+02 | 6.270000e+02 |   0.96%| unknown
 92.8s|     1 |     0 | 13024 |     - |    57M |   0 | 230 | 417 | 374 |  22 | 12 | 125 |  42 | 6.210284e+02 | 6.270000e+02 |   0.96%| unknown
 92.8s|     1 |     0 | 13050 |     - |    57M |   0 | 230 | 417 | 375 |  23 | 13 | 125 |  42 | 6.210284e+02 | 6.270000e+02 |   0.96%| unknown
 time | node  | left  |LP iter|LP it/n|mem/heur|mdpt |vars |cons |rows |cuts |sepa|confs|strbr|  dualbound   | primalbound  |  gap   | compl. 
 97.4s|     1 |     2 | 13050 |     - |    57M |   0 | 230 | 417 | 375 |  23 | 13 | 125 |  76 | 6.210683e+02 | 6.270000e+02 |   0.96%| unknown

SCIP Status        : problem is solved [optimal solution found]
Solving Time (sec) : 108.75
Solving Nodes      : 18 (total of 22 nodes in 5 runs)
Primal Bound       : +6.27000000000000e+02 (8 solutions)
Dual Bound         : +6.27000000000000e+02
Gap                : 0.00 %
Solve Status: optimal
Solve Time: 108.75 seconds
